p cnf 553 1472
7 0
13 0
19 0
25 0
31 0
14 0
20 0
26 0
32 0
21 0
27 0
33 0
28 0
34 0
35 0
-7 -14 13 0
-7 -20 19 0
-7 -26 25 0
-7 -32 31 0
-13 -9 7 0
-13 -21 19 0
-13 -27 25 0
-13 -33 31 0
-19 -10 7 0
-19 -16 13 0
-19 -28 25 0
-19 -34 31 0
-25 -11 7 0
-25 -17 13 0
-25 -23 19 0
-25 -35 31 0
-31 -12 7 0
-31 -18 13 0
-31 -24 19 0
-31 -30 25 0
-2 -13 14 0
-2 -19 20 0
-2 -25 26 0
-2 -31 32 0
-14 -3 2 0
-14 -21 20 0
-14 -27 26 0
-14 -33 32 0
-20 -4 2 0
-20 -16 14 0
-20 -28 26 0
-20 -34 32 0
-26 -5 2 0
-26 -17 14 0
-26 -23 20 0
-26 -35 32 0
-32 -6 2 0
-32 -18 14 0
-32 -24 20 0
-32 -30 26 0
-3 -7 9 0
-3 -19 21 0
-3 -25 27 0
-3 -31 33 0
-9 -2 3 0
-9 -20 21 0
-9 -26 27 0
-9 -32 33 0
-21 -4 3 0
-21 -10 9 0
-21 -28 27 0
-21 -34 33 0
-27 -5 3 0
-27 -11 9 0
-27 -23 21 0
-27 -35 33 0
-33 -6 3 0
-33 -12 9 0
-33 -24 21 0
-33 -30 27 0
-4 -7 10 0
-4 -13 16 0
-4 -25 28 0
-4 -31 34 0
-10 -2 4 0
-10 -14 16 0
-10 -26 28 0
-10 -32 34 0
-16 -3 4 0
-16 -9 10 0
-16 -27 28 0
-16 -33 34 0
-28 -5 4 0
-28 -11 10 0
-28 -17 16 0
-28 -35 34 0
-34 -6 4 0
-34 -12 10 0
-34 -18 16 0
-34 -30 28 0
-5 -7 11 0
-5 -13 17 0
-5 -19 23 0
-5 -31 35 0
-11 -2 5 0
-11 -14 17 0
-11 -20 23 0
-11 -32 35 0
-17 -3 5 0
-17 -9 11 0
-17 -21 23 0
-17 -33 35 0
-23 -4 5 0
-23 -10 11 0
-23 -16 17 0
-23 -34 35 0
-35 -6 5 0
-35 -12 11 0
-35 -18 17 0
-35 -24 23 0
-6 -7 12 0
-6 -13 18 0
-6 -19 24 0
-6 -25 30 0
-12 -2 6 0
-12 -14 18 0
-12 -20 24 0
-12 -26 30 0
-18 -3 6 0
-18 -9 12 0
-18 -21 24 0
-18 -27 30 0
-24 -4 6 0
-24 -10 12 0
-24 -16 18 0
-24 -28 30 0
-30 -5 6 0
-30 -11 12 0
-30 -17 18 0
-30 -23 24 0
-43 -50 49 0
-43 -56 55 0
-43 -62 61 0
-43 -68 67 0
-49 -45 43 0
-49 -57 55 0
-49 -63 61 0
-49 -69 67 0
-55 -46 43 0
-55 -52 49 0
-55 -64 61 0
-55 -70 67 0
-61 -47 43 0
-61 -53 49 0
-61 -59 55 0
-61 -71 67 0
-67 -48 43 0
-67 -54 49 0
-67 -60 55 0
-67 -66 61 0
-38 -49 50 0
-38 -55 56 0
-38 -61 62 0
-38 -67 68 0
-50 -39 38 0
-50 -57 56 0
-50 -63 62 0
-50 -69 68 0
-56 -40 38 0
-56 -52 50 0
-56 -64 62 0
-56 -70 68 0
-62 -41 38 0
-62 -53 50 0
-62 -59 56 0
-62 -71 68 0
-68 -42 38 0
-68 -54 50 0
-68 -60 56 0
-68 -66 62 0
-39 -43 45 0
-39 -55 57 0
-39 -61 63 0
-39 -67 69 0
-45 -38 39 0
-45 -56 57 0
-45 -62 63 0
-45 -68 69 0
-57 -40 39 0
-57 -46 45 0
-57 -64 63 0
-57 -70 69 0
-63 -41 39 0
-63 -47 45 0
-63 -59 57 0
-63 -71 69 0
-69 -42 39 0
-69 -48 45 0
-69 -60 57 0
-69 -66 63 0
-40 -43 46 0
-40 -49 52 0
-40 -61 64 0
-40 -67 70 0
-46 -38 40 0
-46 -50 52 0
-46 -62 64 0
-46 -68 70 0
-52 -39 40 0
-52 -45 46 0
-52 -63 64 0
-52 -69 70 0
-64 -41 40 0
-64 -47 46 0
-64 -53 52 0
-64 -71 70 0
-70 -42 40 0
-70 -48 46 0
-70 -54 52 0
-70 -66 64 0
-41 -43 47 0
-41 -49 53 0
-41 -55 59 0
-41 -67 71 0
-47 -38 41 0
-47 -50 53 0
-47 -56 59 0
-47 -68 71 0
-53 -39 41 0
-53 -45 47 0
-53 -57 59 0
-53 -69 71 0
-59 -40 41 0
-59 -46 47 0
-59 -52 53 0
-59 -70 71 0
-71 -42 41 0
-71 -48 47 0
-71 -54 53 0
-71 -60 59 0
-42 -43 48 0
-42 -49 54 0
-42 -55 60 0
-42 -61 66 0
-48 -38 42 0
-48 -50 54 0
-48 -56 60 0
-48 -62 66 0
-54 -39 42 0
-54 -45 48 0
-54 -57 60 0
-54 -63 66 0
-60 -40 42 0
-60 -46 48 0
-60 -52 54 0
-60 -64 66 0
-66 -41 42 0
-66 -47 48 0
-66 -53 54 0
-66 -59 60 0
-79 -86 85 0
-79 -92 91 0
-79 -98 97 0
-79 -104 103 0
-85 -81 79 0
-85 -93 91 0
-85 -99 97 0
-85 -105 103 0
-91 -82 79 0
-91 -88 85 0
-91 -100 97 0
-91 -106 103 0
-97 -83 79 0
-97 -89 85 0
-97 -95 91 0
-97 -107 103 0
-103 -84 79 0
-103 -90 85 0
-103 -96 91 0
-103 -102 97 0
-74 -85 86 0
-74 -91 92 0
-74 -97 98 0
-74 -103 104 0
-86 -75 74 0
-86 -93 92 0
-86 -99 98 0
-86 -105 104 0
-92 -76 74 0
-92 -88 86 0
-92 -100 98 0
-92 -106 104 0
-98 -77 74 0
-98 -89 86 0
-98 -95 92 0
-98 -107 104 0
-104 -78 74 0
-104 -90 86 0
-104 -96 92 0
-104 -102 98 0
-75 -79 81 0
-75 -91 93 0
-75 -97 99 0
-75 -103 105 0
-81 -74 75 0
-81 -92 93 0
-81 -98 99 0
-81 -104 105 0
-93 -76 75 0
-93 -82 81 0
-93 -100 99 0
-93 -106 105 0
-99 -77 75 0
-99 -83 81 0
-99 -95 93 0
-99 -107 105 0
-105 -78 75 0
-105 -84 81 0
-105 -96 93 0
-105 -102 99 0
-76 -79 82 0
-76 -85 88 0
-76 -97 100 0
-76 -103 106 0
-82 -74 76 0
-82 -86 88 0
-82 -98 100 0
-82 -104 106 0
-88 -75 76 0
-88 -81 82 0
-88 -99 100 0
-88 -105 106 0
-100 -77 76 0
-100 -83 82 0
-100 -89 88 0
-100 -107 106 0
-106 -78 76 0
-106 -84 82 0
-106 -90 88 0
-106 -102 100 0
-77 -79 83 0
-77 -85 89 0
-77 -91 95 0
-77 -103 107 0
-83 -74 77 0
-83 -86 89 0
-83 -92 95 0
-83 -104 107 0
-89 -75 77 0
-89 -81 83 0
-89 -93 95 0
-89 -105 107 0
-95 -76 77 0
-95 -82 83 0
-95 -88 89 0
-95 -106 107 0
-107 -78 77 0
-107 -84 83 0
-107 -90 89 0
-107 -96 95 0
-78 -79 84 0
-78 -85 90 0
-78 -91 96 0
-78 -97 102 0
-84 -74 78 0
-84 -86 90 0
-84 -92 96 0
-84 -98 102 0
-90 -75 78 0
-90 -81 84 0
-90 -93 96 0
-90 -99 102 0
-96 -76 78 0
-96 -82 84 0
-96 -88 90 0
-96 -100 102 0
-102 -77 78 0
-102 -83 84 0
-102 -89 90 0
-102 -95 96 0
-115 -122 121 0
-115 -128 127 0
-115 -134 133 0
-115 -140 139 0
-121 -117 115 0
-121 -129 127 0
-121 -135 133 0
-121 -141 139 0
-127 -118 115 0
-127 -124 121 0
-127 -136 133 0
-127 -142 139 0
-133 -119 115 0
-133 -125 121 0
-133 -131 127 0
-133 -143 139 0
-139 -120 115 0
-139 -126 121 0
-139 -132 127 0
-139 -138 133 0
-110 -121 122 0
-110 -127 128 0
-110 -133 134 0
-110 -139 140 0
-122 -111 110 0
-122 -129 128 0
-122 -135 134 0
-122 -141 140 0
-128 -112 110 0
-128 -124 122 0
-128 -136 134 0
-128 -142 140 0
-134 -113 110 0
-134 -125 122 0
-134 -131 128 0
-134 -143 140 0
-140 -114 110 0
-140 -126 122 0
-140 -132 128 0
-140 -138 134 0
-111 -115 117 0
-111 -127 129 0
-111 -133 135 0
-111 -139 141 0
-117 -110 111 0
-117 -128 129 0
-117 -134 135 0
-117 -140 141 0
-129 -112 111 0
-129 -118 117 0
-129 -136 135 0
-129 -142 141 0
-135 -113 111 0
-135 -119 117 0
-135 -131 129 0
-135 -143 141 0
-141 -114 111 0
-141 -120 117 0
-141 -132 129 0
-141 -138 135 0
-112 -115 118 0
-112 -121 124 0
-112 -133 136 0
-112 -139 142 0
-118 -110 112 0
-118 -122 124 0
-118 -134 136 0
-118 -140 142 0
-124 -111 112 0
-124 -117 118 0
-124 -135 136 0
-124 -141 142 0
-136 -113 112 0
-136 -119 118 0
-136 -125 124 0
-136 -143 142 0
-142 -114 112 0
-142 -120 118 0
-142 -126 124 0
-142 -138 136 0
-113 -115 119 0
-113 -121 125 0
-113 -127 131 0
-113 -139 143 0
-119 -110 113 0
-119 -122 125 0
-119 -128 131 0
-119 -140 143 0
-125 -111 113 0
-125 -117 119 0
-125 -129 131 0
-125 -141 143 0
-131 -112 113 0
-131 -118 119 0
-131 -124 125 0
-131 -142 143 0
-143 -114 113 0
-143 -120 119 0
-143 -126 125 0
-143 -132 131 0
-114 -115 120 0
-114 -121 126 0
-114 -127 132 0
-114 -133 138 0
-120 -110 114 0
-120 -122 126 0
-120 -128 132 0
-120 -134 138 0
-126 -111 114 0
-126 -117 120 0
-126 -129 132 0
-126 -135 138 0
-132 -112 114 0
-132 -118 120 0
-132 -124 126 0
-132 -136 138 0
-138 -113 114 0
-138 -119 120 0
-138 -125 126 0
-138 -131 132 0
-151 -158 157 0
-151 -164 163 0
-151 -170 169 0
-151 -176 175 0
-157 -153 151 0
-157 -165 163 0
-157 -171 169 0
-157 -177 175 0
-163 -154 151 0
-163 -160 157 0
-163 -172 169 0
-163 -178 175 0
-169 -155 151 0
-169 -161 157 0
-169 -167 163 0
-169 -179 175 0
-175 -156 151 0
-175 -162 157 0
-175 -168 163 0
-175 -174 169 0
-146 -157 158 0
-146 -163 164 0
-146 -169 170 0
-146 -175 176 0
-158 -147 146 0
-158 -165 164 0
-158 -171 170 0
-158 -177 176 0
-164 -148 146 0
-164 -160 158 0
-164 -172 170 0
-164 -178 176 0
-170 -149 146 0
-170 -161 158 0
-170 -167 164 0
-170 -179 176 0
-176 -150 146 0
-176 -162 158 0
-176 -168 164 0
-176 -174 170 0
-147 -151 153 0
-147 -163 165 0
-147 -169 171 0
-147 -175 177 0
-153 -146 147 0
-153 -164 165 0
-153 -170 171 0
-153 -176 177 0
-165 -148 147 0
-165 -154 153 0
-165 -172 171 0
-165 -178 177 0
-171 -149 147 0
-171 -155 153 0
-171 -167 165 0
-171 -179 177 0
-177 -150 147 0
-177 -156 153 0
-177 -168 165 0
-177 -174 171 0
-148 -151 154 0
-148 -157 160 0
-148 -169 172 0
-148 -175 178 0
-154 -146 148 0
-154 -158 160 0
-154 -170 172 0
-154 -176 178 0
-160 -147 148 0
-160 -153 154 0
-160 -171 172 0
-160 -177 178 0
-172 -149 148 0
-172 -155 154 0
-172 -161 160 0
-172 -179 178 0
-178 -150 148 0
-178 -156 154 0
-178 -162 160 0
-178 -174 172 0
-149 -151 155 0
-149 -157 161 0
-149 -163 167 0
-149 -175 179 0
-155 -146 149 0
-155 -158 161 0
-155 -164 167 0
-155 -176 179 0
-161 -147 149 0
-161 -153 155 0
-161 -165 167 0
-161 -177 179 0
-167 -148 149 0
-167 -154 155 0
-167 -160 161 0
-167 -178 179 0
-179 -150 149 0
-179 -156 155 0
-179 -162 161 0
-179 -168 167 0
-150 -151 156 0
-150 -157 162 0
-150 -163 168 0
-150 -169 174 0
-156 -146 150 0
-156 -158 162 0
-156 -164 168 0
-156 -170 174 0
-162 -147 150 0
-162 -153 156 0
-162 -165 168 0
-162 -171 174 0
-168 -148 150 0
-168 -154 156 0
-168 -160 162 0
-168 -172 174 0
-174 -149 150 0
-174 -155 156 0
-174 -161 162 0
-174 -167 168 0
7 2 0
-7 -2 0
13 3 0
-13 -3 0
19 4 0
-19 -4 0
25 5 0
-25 -5 0
31 6 0
-31 -6 0
2 7 0
-2 -7 0
14 9 0
-14 -9 0
20 10 0
-20 -10 0
26 11 0
-26 -11 0
32 12 0
-32 -12 0
3 13 0
-3 -13 0
9 14 0
-9 -14 0
21 16 0
-21 -16 0
27 17 0
-27 -17 0
33 18 0
-33 -18 0
4 19 0
-4 -19 0
10 20 0
-10 -20 0
16 21 0
-16 -21 0
28 23 0
-28 -23 0
34 24 0
-34 -24 0
5 25 0
-5 -25 0
11 26 0
-11 -26 0
17 27 0
-17 -27 0
23 28 0
-23 -28 0
35 30 0
-35 -30 0
6 31 0
-6 -31 0
12 32 0
-12 -32 0
18 33 0
-18 -33 0
24 34 0
-24 -34 0
30 35 0
-30 -35 0
43 38 0
-43 -38 0
49 39 0
-49 -39 0
55 40 0
-55 -40 0
61 41 0
-61 -41 0
67 42 0
-67 -42 0
38 43 0
-38 -43 0
50 45 0
-50 -45 0
56 46 0
-56 -46 0
62 47 0
-62 -47 0
68 48 0
-68 -48 0
39 49 0
-39 -49 0
45 50 0
-45 -50 0
57 52 0
-57 -52 0
63 53 0
-63 -53 0
69 54 0
-69 -54 0
40 55 0
-40 -55 0
46 56 0
-46 -56 0
52 57 0
-52 -57 0
64 59 0
-64 -59 0
70 60 0
-70 -60 0
41 61 0
-41 -61 0
47 62 0
-47 -62 0
53 63 0
-53 -63 0
59 64 0
-59 -64 0
71 66 0
-71 -66 0
42 67 0
-42 -67 0
48 68 0
-48 -68 0
54 69 0
-54 -69 0
60 70 0
-60 -70 0
66 71 0
-66 -71 0
79 74 0
-79 -74 0
85 75 0
-85 -75 0
91 76 0
-91 -76 0
97 77 0
-97 -77 0
103 78 0
-103 -78 0
74 79 0
-74 -79 0
86 81 0
-86 -81 0
92 82 0
-92 -82 0
98 83 0
-98 -83 0
104 84 0
-104 -84 0
75 85 0
-75 -85 0
81 86 0
-81 -86 0
93 88 0
-93 -88 0
99 89 0
-99 -89 0
105 90 0
-105 -90 0
76 91 0
-76 -91 0
82 92 0
-82 -92 0
88 93 0
-88 -93 0
100 95 0
-100 -95 0
106 96 0
-106 -96 0
77 97 0
-77 -97 0
83 98 0
-83 -98 0
89 99 0
-89 -99 0
95 100 0
-95 -100 0
107 102 0
-107 -102 0
78 103 0
-78 -103 0
84 104 0
-84 -104 0
90 105 0
-90 -105 0
96 106 0
-96 -106 0
102 107 0
-102 -107 0
115 110 0
-115 -110 0
121 111 0
-121 -111 0
127 112 0
-127 -112 0
133 113 0
-133 -113 0
139 114 0
-139 -114 0
110 115 0
-110 -115 0
122 117 0
-122 -117 0
128 118 0
-128 -118 0
134 119 0
-134 -119 0
140 120 0
-140 -120 0
111 121 0
-111 -121 0
117 122 0
-117 -122 0
129 124 0
-129 -124 0
135 125 0
-135 -125 0
141 126 0
-141 -126 0
112 127 0
-112 -127 0
118 128 0
-118 -128 0
124 129 0
-124 -129 0
136 131 0
-136 -131 0
142 132 0
-142 -132 0
113 133 0
-113 -133 0
119 134 0
-119 -134 0
125 135 0
-125 -135 0
131 136 0
-131 -136 0
143 138 0
-143 -138 0
114 139 0
-114 -139 0
120 140 0
-120 -140 0
126 141 0
-126 -141 0
132 142 0
-132 -142 0
138 143 0
-138 -143 0
151 146 0
-151 -146 0
157 147 0
-157 -147 0
163 148 0
-163 -148 0
169 149 0
-169 -149 0
175 150 0
-175 -150 0
146 151 0
-146 -151 0
158 153 0
-158 -153 0
164 154 0
-164 -154 0
170 155 0
-170 -155 0
176 156 0
-176 -156 0
147 157 0
-147 -157 0
153 158 0
-153 -158 0
165 160 0
-165 -160 0
171 161 0
-171 -161 0
177 162 0
-177 -162 0
148 163 0
-148 -163 0
154 164 0
-154 -164 0
160 165 0
-160 -165 0
172 167 0
-172 -167 0
178 168 0
-178 -168 0
149 169 0
-149 -169 0
155 170 0
-155 -170 0
161 171 0
-161 -171 0
167 172 0
-167 -172 0
179 174 0
-179 -174 0
150 175 0
-150 -175 0
156 176 0
-156 -176 0
162 177 0
-162 -177 0
168 178 0
-168 -178 0
174 179 0
-174 -179 0
-433 -444 0
-433 -455 0
-433 -466 0
-444 -455 0
-444 -466 0
-455 -466 0
-434 -445 0
-434 -456 0
-434 -467 0
-445 -456 0
-445 -467 0
-456 -467 0
-435 -446 0
-435 -457 0
-435 -468 0
-446 -457 0
-446 -468 0
-457 -468 0
-436 -447 0
-436 -458 0
-436 -469 0
-447 -458 0
-447 -469 0
-458 -469 0
-437 -448 0
-437 -459 0
-437 -470 0
-448 -459 0
-448 -470 0
-459 -470 0
-438 -449 0
-438 -460 0
-438 -471 0
-449 -460 0
-449 -471 0
-460 -471 0
-439 -450 0
-439 -461 0
-439 -472 0
-450 -461 0
-450 -472 0
-461 -472 0
-440 -451 0
-440 -462 0
-440 -473 0
-451 -462 0
-451 -473 0
-462 -473 0
-441 -452 0
-441 -463 0
-441 -474 0
-452 -463 0
-452 -474 0
-463 -474 0
-442 -453 0
-442 -464 0
-442 -475 0
-453 -464 0
-453 -475 0
-464 -475 0
-443 -454 0
-443 -465 0
-443 -476 0
-454 -465 0
-454 -476 0
-465 -476 0
433 444 455 466 0
434 445 456 467 0
435 446 457 468 0
436 447 458 469 0
437 448 459 470 0
438 449 460 471 0
439 450 461 472 0
440 451 462 473 0
441 452 463 474 0
442 453 464 475 0
443 454 465 476 0
-433 -7 -43 0
-433 7 43 0
-444 -43 -79 0
-444 43 79 0
-455 -79 -115 0
-455 79 115 0
-466 -115 -151 0
-466 115 151 0
-434 -13 -49 0
-434 13 49 0
-445 -49 -85 0
-445 49 85 0
-456 -85 -121 0
-456 85 121 0
-467 -121 -157 0
-467 121 157 0
-435 -19 -55 0
-435 19 55 0
-446 -55 -91 0
-446 55 91 0
-457 -91 -127 0
-457 91 127 0
-468 -127 -163 0
-468 127 163 0
-436 -25 -61 0
-436 25 61 0
-447 -61 -97 0
-447 61 97 0
-458 -97 -133 0
-458 97 133 0
-469 -133 -169 0
-469 133 169 0
-437 -31 -67 0
-437 31 67 0
-448 -67 -103 0
-448 67 103 0
-459 -103 -139 0
-459 103 139 0
-470 -139 -175 0
-470 139 175 0
-438 -21 -57 0
-438 21 57 0
-449 -57 -93 0
-449 57 93 0
-460 -93 -129 0
-460 93 129 0
-471 -129 -165 0
-471 129 165 0
-439 -27 -63 0
-439 27 63 0
-450 -63 -99 0
-450 63 99 0
-461 -99 -135 0
-461 99 135 0
-472 -135 -171 0
-472 135 171 0
-440 -33 -69 0
-440 33 69 0
-451 -69 -105 0
-451 69 105 0
-462 -105 -141 0
-462 105 141 0
-473 -141 -177 0
-473 141 177 0
-441 -28 -64 0
-441 28 64 0
-452 -64 -100 0
-452 64 100 0
-463 -100 -136 0
-463 100 136 0
-474 -136 -172 0
-474 136 172 0
-442 -34 -70 0
-442 34 70 0
-453 -70 -106 0
-453 70 106 0
-464 -106 -142 0
-464 106 142 0
-475 -142 -178 0
-475 142 178 0
-443 -35 -71 0
-443 35 71 0
-454 -71 -107 0
-454 71 107 0
-465 -107 -143 0
-465 107 143 0
-476 -143 -179 0
-476 143 179 0
-7 43 433 0
7 -43 433 0
-13 49 434 0
13 -49 434 0
-19 55 435 0
19 -55 435 0
-25 61 436 0
25 -61 436 0
-31 67 437 0
31 -67 437 0
-14 50 0
14 -50 0
-20 56 0
20 -56 0
-26 62 0
26 -62 0
-32 68 0
32 -68 0
-21 57 438 0
21 -57 438 0
-27 63 439 0
27 -63 439 0
-33 69 440 0
33 -69 440 0
-28 64 441 0
28 -64 441 0
-34 70 442 0
34 -70 442 0
-35 71 443 0
35 -71 443 0
-43 79 444 0
43 -79 444 0
-49 85 445 0
49 -85 445 0
-55 91 446 0
55 -91 446 0
-61 97 447 0
61 -97 447 0
-67 103 448 0
67 -103 448 0
-50 86 0
50 -86 0
-56 92 0
56 -92 0
-62 98 0
62 -98 0
-68 104 0
68 -104 0
-57 93 449 0
57 -93 449 0
-63 99 450 0
63 -99 450 0
-69 105 451 0
69 -105 451 0
-64 100 452 0
64 -100 452 0
-70 106 453 0
70 -106 453 0
-71 107 454 0
71 -107 454 0
-79 115 455 0
79 -115 455 0
-85 121 456 0
85 -121 456 0
-91 127 457 0
91 -127 457 0
-97 133 458 0
97 -133 458 0
-103 139 459 0
103 -139 459 0
-86 122 0
86 -122 0
-92 128 0
92 -128 0
-98 134 0
98 -134 0
-104 140 0
104 -140 0
-93 129 460 0
93 -129 460 0
-99 135 461 0
99 -135 461 0
-105 141 462 0
105 -141 462 0
-100 136 463 0
100 -136 463 0
-106 142 464 0
106 -142 464 0
-107 143 465 0
107 -143 465 0
-115 151 466 0
115 -151 466 0
-121 157 467 0
121 -157 467 0
-127 163 468 0
127 -163 468 0
-133 169 469 0
133 -169 469 0
-139 175 470 0
139 -175 470 0
-122 158 0
122 -158 0
-128 164 0
128 -164 0
-134 170 0
134 -170 0
-140 176 0
140 -176 0
-129 165 471 0
129 -165 471 0
-135 171 472 0
135 -171 472 0
-141 177 473 0
141 -177 473 0
-136 172 474 0
136 -172 474 0
-142 178 475 0
142 -178 475 0
-143 179 476 0
143 -179 476 0
-433 -434 0
-433 -435 0
-433 -436 0
-433 -437 0
-434 -433 0
-434 -435 0
-434 -436 0
-434 -437 0
-434 -438 0
-434 -439 0
-434 -440 0
-435 -433 0
-435 -434 0
-435 -436 0
-435 -437 0
-435 -438 0
-435 -441 0
-435 -442 0
-436 -433 0
-436 -434 0
-436 -435 0
-436 -437 0
-436 -439 0
-436 -441 0
-436 -443 0
-437 -433 0
-437 -434 0
-437 -435 0
-437 -436 0
-437 -440 0
-437 -442 0
-437 -443 0
-438 -434 0
-438 -435 0
-438 -439 0
-438 -440 0
-438 -441 0
-438 -442 0
-439 -434 0
-439 -436 0
-439 -438 0
-439 -440 0
-439 -441 0
-439 -443 0
-440 -434 0
-440 -437 0
-440 -438 0
-440 -439 0
-440 -442 0
-440 -443 0
-441 -435 0
-441 -436 0
-441 -438 0
-441 -439 0
-441 -442 0
-441 -443 0
-442 -435 0
-442 -437 0
-442 -438 0
-442 -440 0
-442 -441 0
-442 -443 0
-443 -436 0
-443 -437 0
-443 -439 0
-443 -440 0
-443 -441 0
-443 -442 0
-444 -445 0
-444 -446 0
-444 -447 0
-444 -448 0
-445 -444 0
-445 -446 0
-445 -447 0
-445 -448 0
-445 -449 0
-445 -450 0
-445 -451 0
-446 -444 0
-446 -445 0
-446 -447 0
-446 -448 0
-446 -449 0
-446 -452 0
-446 -453 0
-447 -444 0
-447 -445 0
-447 -446 0
-447 -448 0
-447 -450 0
-447 -452 0
-447 -454 0
-448 -444 0
-448 -445 0
-448 -446 0
-448 -447 0
-448 -451 0
-448 -453 0
-448 -454 0
-449 -445 0
-449 -446 0
-449 -450 0
-449 -451 0
-449 -452 0
-449 -453 0
-450 -445 0
-450 -447 0
-450 -449 0
-450 -451 0
-450 -452 0
-450 -454 0
-451 -445 0
-451 -448 0
-451 -449 0
-451 -450 0
-451 -453 0
-451 -454 0
-452 -446 0
-452 -447 0
-452 -449 0
-452 -450 0
-452 -453 0
-452 -454 0
-453 -446 0
-453 -448 0
-453 -449 0
-453 -451 0
-453 -452 0
-453 -454 0
-454 -447 0
-454 -448 0
-454 -450 0
-454 -451 0
-454 -452 0
-454 -453 0
-455 -456 0
-455 -457 0
-455 -458 0
-455 -459 0
-456 -455 0
-456 -457 0
-456 -458 0
-456 -459 0
-456 -460 0
-456 -461 0
-456 -462 0
-457 -455 0
-457 -456 0
-457 -458 0
-457 -459 0
-457 -460 0
-457 -463 0
-457 -464 0
-458 -455 0
-458 -456 0
-458 -457 0
-458 -459 0
-458 -461 0
-458 -463 0
-458 -465 0
-459 -455 0
-459 -456 0
-459 -457 0
-459 -458 0
-459 -462 0
-459 -464 0
-459 -465 0
-460 -456 0
-460 -457 0
-460 -461 0
-460 -462 0
-460 -463 0
-460 -464 0
-461 -456 0
-461 -458 0
-461 -460 0
-461 -462 0
-461 -463 0
-461 -465 0
-462 -456 0
-462 -459 0
-462 -460 0
-462 -461 0
-462 -464 0
-462 -465 0
-463 -457 0
-463 -458 0
-463 -460 0
-463 -461 0
-463 -464 0
-463 -465 0
-464 -457 0
-464 -459 0
-464 -460 0
-464 -462 0
-464 -463 0
-464 -465 0
-465 -458 0
-465 -459 0
-465 -461 0
-465 -462 0
-465 -463 0
-465 -464 0
-466 -467 0
-466 -468 0
-466 -469 0
-466 -470 0
-467 -466 0
-467 -468 0
-467 -469 0
-467 -470 0
-467 -471 0
-467 -472 0
-467 -473 0
-468 -466 0
-468 -467 0
-468 -469 0
-468 -470 0
-468 -471 0
-468 -474 0
-468 -475 0
-469 -466 0
-469 -467 0
-469 -468 0
-469 -470 0
-469 -472 0
-469 -474 0
-469 -476 0
-470 -466 0
-470 -467 0
-470 -468 0
-470 -469 0
-470 -473 0
-470 -475 0
-470 -476 0
-471 -467 0
-471 -468 0
-471 -472 0
-471 -473 0
-471 -474 0
-471 -475 0
-472 -467 0
-472 -469 0
-472 -471 0
-472 -473 0
-472 -474 0
-472 -476 0
-473 -467 0
-473 -470 0
-473 -471 0
-473 -472 0
-473 -475 0
-473 -476 0
-474 -468 0
-474 -469 0
-474 -471 0
-474 -472 0
-474 -475 0
-474 -476 0
-475 -468 0
-475 -470 0
-475 -471 0
-475 -473 0
-475 -474 0
-475 -476 0
-476 -469 0
-476 -470 0
-476 -472 0
-476 -473 0
-476 -474 0
-476 -475 0